NAME : XML100_3341_09
DIMENSION : 101
NB_CLUSTERS : 3
CLUSTERING_ALG : KMeans
CLUSTERING_PARAMS : k(2)
CLUSTERS
1 0
2 3 4 5 8 9 11 14 15 18 21 22 23 25 27 29 30 31 32 33 36 39 40 45 47 48 49 50 51 52 55 59 62 63 65 70 73 74 76 78 79 80 81 82 85 86 87 90 93 94 95 96 100
3 1 2 6 7 10 12 13 16 17 19 20 24 26 28 34 35 37 38 41 42 43 44 46 53 54 56 57 58 60 61 64 66 67 68 69 71 72 75 77 83 84 88 89 91 92 97 98 99
EOF